instances/knapsack/discrete/knapsack_140_3.kp
35635
140
638

10 1.0 47
3 0.3 35
13 1.3 53
2 0.2 97
35 3.5 2
88 8.8 86
56 5.6 50
26 2.6 88
80 8.0 83
45 4.5 67
18 1.8 60
78 7.8 40
31 3.1 76
95 9.5 23
47 4.7 4
3 0.3 61
4 0.4 15
7 0.7 19
40 4.0 23
85 8.5 54
28 2.8 38
62 6.2 20
59 5.9 33
77 7.7 5
59 5.9 30
63 6.3 95
1 0.1 33
46 4.6 16
56 5.6 71
42 4.2 1
60 6.0 90
94 9.4 65
10 1.0 53
64 6.4 72
15 1.5 68
24 2.4 58
31 3.1 94
75 7.5 32
51 5.1 87
97 9.7 36
22 2.2 57
20 2.0 42
89 8.9 62
28 2.8 40
82 8.2 7
81 8.1 64
60 6.0 97
44 4.4 97
90 9.0 37
19 1.9 26
77 7.7 8
79 7.9 99
24 2.4 24
15 1.5 22
95 9.5 49
98 9.8 71
4 0.4 91
21 2.1 41
71 7.1 33
57 5.7 48
27 2.7 81
77 7.7 59
46 4.6 82
85 8.5 46
6 0.6 95
7 0.7 30
47 4.7 30
57 5.7 94
27 2.7 65
96 9.6 2
40 4.0 14
16 1.6 84
5 0.5 70
2 0.2 22
2 0.2 55
79 7.9 83
5 0.5 67
98 9.8 94
71 7.1 29
77 7.7 16
68 6.8 56
40 4.0 91
85 8.5 94
32 3.2 51
56 5.6 34
20 2.0 25
46 4.6 23
27 2.7 72
53 5.3 13
74 7.4 91
31 3.1 99
51 5.1 66
83 8.3 74
90 9.0 97
3 0.3 85
12 1.2 47
68 6.8 26
43 4.3 49
3 0.3 73
75 7.5 1
4 0.4 9
3 0.3 38
85 8.5 15
3 0.3 90
80 8.0 12
13 1.3 28
42 4.2 75
65 6.5 41
41 4.1 7
76 7.6 53
45 4.5 30
2 0.2 83
84 8.4 58
68 6.8 56
60 6.0 7
25 2.5 90
62 6.2 56
96 9.6 18
12 1.2 43
95 9.5 32
70 7.0 90
91 9.1 75
14 1.4 15
61 6.1 32
60 6.0 100
5 0.5 81
78 7.8 17
86 8.6 99
21 2.1 40
2 0.2 1
8 0.8 7
96 9.6 76
9 0.9 93
35 3.5 43
91 9.1 26
37 3.7 56
100 10.0 21
37 3.7 90
64 6.4 100
87 8.7 74

54747
658

[2.22 3.25 3.1 3.99 2.53 1.77 1.46 3.98 3.95 4.35 1.32 2.81 3.28 3.7 4.12 4.41 0.62 4.49 2.86 3.44 0.72 3.97 0.02 0.14 0.6 2.08 4.19 0.31 3.31 3.92 1.45 0.49 2.1 2.28 0.92 1.83 1.4 3.37 2.66 0.71 2.13 0.69 4.56 4.22 4.59 0.6 0.63 3.66 3.61 2.85 0.61 3.75 4.44 1.15 2.98 1.0 3.25 0.17 1.08 2.21 2.11 4.01 3.55 1.68 1.01 2.6 1.29 4.57 0.36 4.62 1.54 0.91 3.34 1.39 1.46 0.24 0.08 2.69 3.34 3.11 2.79 2.01 2.76 2.58 0.52 3.67 1.25 0.19 0.03 0.51 3.8 0.71 0.97 3.88 3.96 4.23 3.96 0.88 3.64 1.43 1.57 3.82 0.38 3.7 1.13 2.89 1.21 2.11 2.85 2.17 0.09 4.54 1.25 0.59 1.73 3.41 3.49 3.39 0.12 1.67 0.51 1.85 3.91 3.87 1.08 1.52 1.38 4.33 4.06 4.6 1.23 2.91 0.13 4.01 3.37 3.96 2.6 2.37 2.12 4.69]

[82 83 93 98 63 48 80 22 56 37 14 98 3 79 11 7 88 43 52 5 12 38 43 69 59 7 9 62 88 78 60 38 2 28 31 32 75 27 31 61 10 96 5 24 70 89 28 8 46 87 61 31 4 43 95 42 16 45 87 29 79 1 26 53 34 27 31 57 19 16 48 64 93 50 54 7 49 98 27 13 12 100 53 44 64 84 58 31 37 50 83 55 75 14 43 20 80 47 59 23 52 99 49 91 60 13 86 93 89 76 17 66 64 12 52 37 62 36 92 63 54 95 18 97 4 57 58 2 21 18 56 100 25 51 43 73 44 93 48 43]
