instances/knapsack/discrete_knapsack_uncertainty/knapsack_140_3.lp
\ Model knapsack_140_3
\ LP format - for model browsing. Use MPS format to capture full model detail.
\ Signature: 0x9977cb8fbdb63468
Minimize
  - 75 x[0] - 67 x[1] - 45 x[2] - 93 x[3] - 46 x[4] - 70 x[5] - 78 x[6]
   - 32 x[7] - 31 x[8] - 27 x[9] - 48 x[10] - 4 x[11] - 4 x[12] - 79 x[13]
   - 96 x[14] - 69 x[15] - 47 x[16] - 59 x[17] - 3 x[18] - 38 x[19]
   - 98 x[20] - 76 x[21] - 77 x[22] - 33 x[23] - 6 x[24] - 67 x[25]
   - 41 x[26] - 76 x[27] - 27 x[28] - x[29] - 66 x[30] - 97 x[31]
   - 13 x[32] - 20 x[33] - 44 x[34] - 90 x[35] - 74 x[36] - 96 x[37]
   - 3 x[38] - 28 x[39] - 13 x[40] - 26 x[41] - 18 x[42] - 88 x[43]
   - 87 x[44] - 12 x[45] - 13 x[46] - 61 x[47] - 45 x[48] - 26 x[49]
   - 60 x[50] - 7 x[51] - 8 x[52] - 86 x[53] - 77 x[54] - 55 x[55]
   - 71 x[56] - 73 x[57] - 37 x[58] - 8 x[59] - 49 x[60] - 59 x[61]
   - 30 x[62] - 22 x[63] - 91 x[64] - 66 x[65] - 6 x[66] - 6 x[67]
   - 77 x[68] - 14 x[69] - 66 x[70] - 52 x[71] - 66 x[72] - 18 x[73]
   - 47 x[74] - 63 x[75] - 67 x[76] - 38 x[77] - 33 x[78] - 4 x[79]
   - 4 x[80] - 55 x[81] - 70 x[82] - 51 x[83] - 98 x[84] - 49 x[85]
   - 91 x[86] - 12 x[87] - 37 x[88] - 51 x[89] - 79 x[90] - 46 x[91]
   - 34 x[92] - 29 x[93] - 21 x[94] - 3 x[95] - 46 x[96] - 5 x[97]
   - 85 x[98] - 5 x[99] - 69 x[100] - 54 x[101] - 35 x[102] - 10 x[103]
   - 8 x[104] - 100 x[105] - 51 x[106] - 33 x[107] - 19 x[108] - 81 x[109]
   - 42 x[110] - 43 x[111] - 66 x[112] - 36 x[113] - 31 x[114] - 90 x[115]
   - 56 x[116] - 54 x[117] - 87 x[118] - 80 x[119] - 98 x[120] - 7 x[121]
   - 55 x[122] - 4 x[123] - 80 x[124] - 41 x[125] - 17 x[126] - 79 x[127]
   - 92 x[128] - 53 x[129] - 59 x[130] - 68 x[131] - 49 x[132] - 7 x[133]
   - 34 x[134] - 88 x[135] - 17 x[136] - 50 x[137] - 20 x[138] - 46 x[139]
Subject To
 primal_upper: 98 x[0] + 31 x[1] + 69 x[2] + 70 x[3] + 87 x[4] + 40 x[5]
   + 96 x[6] + 14 x[7] + 16 x[8] + 69 x[9] + 50 x[10] + 86 x[11] + 35 x[12]
   + 87 x[13] + 79 x[14] + 43 x[15] + 40 x[16] + 3 x[17] + 80 x[18]
   + 85 x[19] + 96 x[20] + 66 x[21] + 23 x[22] + 17 x[23] + 79 x[24]
   + 75 x[25] + 97 x[26] + 46 x[27] + 32 x[28] + 6 x[29] + 100 x[30]
   + 30 x[31] + 62 x[32] + 44 x[33] + 27 x[34] + 32 x[35] + 11 x[36]
   + 11 x[37] + 71 x[38] + 33 x[39] + 30 x[40] + 36 x[41] + 61 x[42]
   + 60 x[43] + 94 x[44] + 69 x[45] + 96 x[46] + 76 x[47] + 94 x[48]
   + 83 x[49] + 61 x[50] + 7 x[51] + 88 x[52] + 71 x[53] + 75 x[54]
   + 82 x[55] + 4 x[56] + 33 x[57] + 87 x[58] + 29 x[59] + 35 x[60]
   + 81 x[61] + 86 x[62] + 25 x[63] + 58 x[64] + 31 x[65] + 23 x[66]
   + 97 x[67] + 23 x[68] + 36 x[69] + 84 x[70] + 32 x[71] + 97 x[72]
   + 98 x[73] + 26 x[74] + 51 x[75] + 5 x[76] + 74 x[77] + 91 x[78]
   + 37 x[79] + 32 x[80] + 80 x[81] + 5 x[82] + 60 x[83] + 24 x[84]
   + 84 x[85] + 94 x[86] + 23 x[87] + x[88] + 6 x[89] + 35 x[90] + 99 x[91]
   + 55 x[92] + 10 x[93] + 75 x[94] + 96 x[95] + 88 x[96] + 11 x[97]
   + 71 x[98] + 31 x[99] + 68 x[100] + 99 x[101] + 25 x[102] + 87 x[103]
   + 88 x[104] + 49 x[105] + 10 x[106] + 65 x[107] + x[108] + 20 x[109]
   + 69 x[110] + 62 x[111] + 72 x[112] + 64 x[113] + 16 x[114] + 13 x[115]
   + 78 x[116] + 68 x[117] + 20 x[118] + 55 x[119] + 94 x[120] + 27 x[121]
   + 74 x[122] + 93 x[123] + 72 x[124] + 81 x[125] + 70 x[126] + 34 x[127]
   + 89 x[128] + 90 x[129] + 12 x[130] + 20 x[131] + 45 x[132] + 83 x[133]
   + 51 x[134] + x[135] + 40 x[136] + 13 x[137] + 96 x[138] + 95 x[139]
   + 9.8 r[0] + 3.1 r[1] + 6.9 r[2] + 7 r[3] + 8.7 r[4] + 4 r[5] + 9.6 r[6]
   + 1.4 r[7] + 1.6 r[8] + 6.9 r[9] + 5 r[10] + 8.6 r[11] + 3.5 r[12]
   + 8.7 r[13] + 7.9 r[14] + 4.3 r[15] + 4 r[16] + 0.3 r[17] + 8 r[18]
   + 8.5 r[19] + 9.6 r[20] + 6.6 r[21] + 2.3 r[22] + 1.7 r[23] + 7.9 r[24]
   + 7.5 r[25] + 9.7 r[26] + 4.6 r[27] + 3.2 r[28] + 0.6 r[29] + 10 r[30]
   + 3 r[31] + 6.2 r[32] + 4.4 r[33] + 2.7 r[34] + 3.2 r[35] + 1.1 r[36]
   + 1.1 r[37] + 7.1 r[38] + 3.3 r[39] + 3 r[40] + 3.6 r[41] + 6.1 r[42]
   + 6 r[43] + 9.4 r[44] + 6.9 r[45] + 9.6 r[46] + 7.6 r[47] + 9.4 r[48]
   + 8.3 r[49] + 6.1 r[50] + 0.7 r[51] + 8.8 r[52] + 7.1 r[53] + 7.5 r[54]
   + 8.2 r[55] + 0.4 r[56] + 3.3 r[57] + 8.7 r[58] + 2.9 r[59] + 3.5 r[60]
   + 8.1 r[61] + 8.6 r[62] + 2.5 r[63] + 5.8 r[64] + 3.1 r[65] + 2.3 r[66]
   + 9.7 r[67] + 2.3 r[68] + 3.6 r[69] + 8.4 r[70] + 3.2 r[71] + 9.7 r[72]
   + 9.8 r[73] + 2.6 r[74] + 5.1 r[75] + 0.5 r[76] + 7.4 r[77] + 9.1 r[78]
   + 3.7 r[79] + 3.2 r[80] + 8 r[81] + 0.5 r[82] + 6 r[83] + 2.4 r[84]
   + 8.4 r[85] + 9.4 r[86] + 2.3 r[87] + 0.1 r[88] + 0.6 r[89] + 3.5 r[90]
   + 9.9 r[91] + 5.5 r[92] + r[93] + 7.5 r[94] + 9.6 r[95] + 8.8 r[96]
   + 1.1 r[97] + 7.1 r[98] + 3.1 r[99] + 6.8 r[100] + 9.9 r[101]
   + 2.5 r[102] + 8.7 r[103] + 8.8 r[104] + 4.9 r[105] + r[106]
   + 6.5 r[107] + 0.1 r[108] + 2 r[109] + 6.9 r[110] + 6.2 r[111]
   + 7.2 r[112] + 6.4 r[113] + 1.6 r[114] + 1.3 r[115] + 7.8 r[116]
   + 6.8 r[117] + 2 r[118] + 5.5 r[119] + 9.4 r[120] + 2.7 r[121]
   + 7.4 r[122] + 9.3 r[123] + 7.2 r[124] + 8.1 r[125] + 7 r[126]
   + 3.4 r[127] + 8.9 r[128] + 9 r[129] + 1.2 r[130] + 2 r[131]
   + 4.5 r[132] + 8.3 r[133] + 5.1 r[134] + 0.1 r[135] + 4 r[136]
   + 1.3 r[137] + 9.6 r[138] + 9.5 r[139] <= 728
 primal_lower: 1.980945028644028 x[0] + 4.491223888625421 x[1]
   + 1.039305793714864 x[2] + 2.342185765927737 x[3]
   + 1.339687658751073 x[4] + 2.299101278989187 x[5]
   + 1.554378248590429 x[6] + 1.537331002388507 x[7]
   + 1.827772466645638 x[8] + 3.318468105429789 x[9]
   + 1.373096196417308 x[10] + 4.44499410082814 x[11]
   + 3.199109358619746 x[12] + 3.75261137407352 x[13]
   + 4.671933583336005 x[14] + 4.316943876454697 x[15]
   + 4.068374581828144 x[16] + 3.787079413750649 x[17]
   + 3.894009298845957 x[18] + 2.813386896960554 x[19]
   + 3.384753000422003 x[20] + 0.3121580977902559 x[21]
   + 1.993413878610782 x[22] + 2.056466470550885 x[23]
   + 4.214556394259498 x[24] + 4.730668122600103 x[25]
   + 3.191460049499006 x[26] + 3.323999906875559 x[27]
   + 2.12635829882737 x[28] + 0.7044452370620946 x[29]
   + 0.5289180713929569 x[30] + 2.84720773895549 x[31]
   + 4.526377736159819 x[32] + 1.905754293551032 x[33]
   + 1.424934343439912 x[34] + 2.085717157037589 x[35]
   + 2.33138075487233 x[36] + 2.192887917575309 x[37]
   + 1.609974152456355 x[38] + 1.957582008052076 x[39]
   + 3.311014653115488 x[40] + 3.921625282464659 x[41]
   + 4.607878842772437 x[42] + 2.156653244092731 x[43]
   + 0.5543324466805015 x[44] + 4.273096052508011 x[45]
   + 3.058771350825576 x[46] + 3.825857285114159 x[47]
   + 4.253509877459661 x[48] + 3.068629272195167 x[49]
   + 4.525170213091403 x[50] + 4.434526941183993 x[51]
   + 0.5643121558786699 x[52] + 1.501255048345164 x[53]
   + 1.67088517128038 x[54] + 3.360252928794791 x[55]
   + 3.601940714287192 x[56] + 0.8755270368151123 x[57]
   + 2.863039852732812 x[58] + 1.963968226524619 x[59]
   + 1.96564857992075 x[60] + 3.58629738011014 x[61]
   + 4.258120987113648 x[62] + 2.424199584718027 x[63]
   + 4.589545736086293 x[64] + 2.274537941447617 x[65]
   + 3.028512166867355 x[66] + 1.943352994235032 x[67]
   + 3.560997711652673 x[68] + 2.178270387206196 x[69]
   + 4.229974809016121 x[70] + 2.934014775916784 x[71]
   + 2.775877059607937 x[72] + 2.802381628410092 x[73]
   + 0.4421096395197623 x[74] + 4.237923024344761 x[75]
   + 0.017759526766743 x[76] + 0.1398298479145434 x[77]
   + 4.630544907583196 x[78] + 4.471426435253171 x[79]
   + 1.867470612538429 x[80] + 1.005211911563227 x[81]
   + 1.99997949195018 x[82] + 3.599505371554745 x[83]
   + 1.950971561944768 x[84] + 3.026437654209943 x[85]
   + 2.810562216448987 x[86] + 2.716409490425331 x[87]
   + 2.396003246449318 x[88] + 3.409540866257291 x[89]
   + 0.3125963686096481 x[90] + 4.03126452763807 x[91]
   + 1.682822447403009 x[92] + 1.799583620946745 x[93]
   + 2.103421025803804 x[94] + 3.519358276303019 x[95]
   + 4.058673396356358 x[96] + 1.893652938583238 x[97]
   + 4.57833201057124 x[98] + 3.98031606518056 x[99]
   + 0.0892690979106634 x[100] + 2.811945837485998 x[101]
   + 2.872134929633085 x[102] + 3.282300496055211 x[103]
   + 1.812512273604787 x[104] + 4.463056088026448 x[105]
   + 0.0224228782677774 x[106] + 3.173032366943866 x[107]
   + 4.15081870963335 x[108] + 4.055975045237066 x[109]
   + 4.176664527876822 x[110] + 3.259397936776143 x[111]
   + 3.047260334445849 x[112] + 2.859155637003772 x[113]
   + 2.082393946599994 x[114] + 3.440773375815669 x[115]
   + 4.682193775687373 x[116] + 0.7486952264605614 x[117]
   + 4.3476558694503 x[118] + 0.768633732990382 x[119]
   + 0.8103602593996271 x[120] + 0.8930148861430236 x[121]
   + 3.858511545761547 x[122] + 0.4110505098689168 x[123]
   + 2.931546709371155 x[124] + 0.3345561400444732 x[125]
   + 0.3555117360189979 x[126] + 1.309920087396971 x[127]
   + 4.382178619794804 x[128] + 3.955238783714293 x[129]
   + 2.049335216431361 x[130] + 2.115925512337621 x[131]
   + 4.383360963543354 x[132] + 1.609429991911074 x[133]
   + 0.03475772947976 x[134] + 3.704286401387177 x[135]
   + 1.554199216299446 x[136] + 4.403724206438892 x[137]
   + 3.312280694397256 x[138] + 0.4206623712773376 x[139] + 86 u[0]
   + 3 u[1] + 33 u[2] + 30 u[3] + 51 u[4] + 40 u[5] + 52 u[6] + 98 u[7]
   + 64 u[8] + 37 u[9] + 22 u[10] + 10 u[11] + 63 u[12] + 59 u[13]
   + 75 u[14] + 43 u[15] + 44 u[16] + 51 u[17] + 24 u[18] + 49 u[19]
   + 64 u[20] + 42 u[21] + 31 u[22] + 89 u[23] + 79 u[24] + 43 u[25]
   + 25 u[26] + 6 u[27] + 12 u[28] + 86 u[29] + 8 u[30] + 98 u[31]
   + 78 u[32] + 52 u[33] + 99 u[34] + 60 u[35] + 83 u[36] + 39 u[37]
   + 23 u[38] + 61 u[39] + 86 u[40] + 68 u[41] + 89 u[42] + 84 u[43]
   + 18 u[44] + 73 u[45] + 84 u[46] + 44 u[47] + 22 u[48] + 39 u[49]
   + 33 u[50] + 95 u[51] + 88 u[52] + 55 u[53] + 99 u[54] + 2 u[55]
   + 60 u[56] + 33 u[57] + 79 u[58] + 29 u[59] + 67 u[60] + 77 u[61]
   + 26 u[62] + 73 u[63] + 46 u[64] + 59 u[65] + 87 u[66] + 81 u[67]
   + 11 u[68] + 4 u[69] + 44 u[70] + 60 u[71] + 93 u[72] + 54 u[73]
   + 62 u[74] + 11 u[75] + 45 u[76] + 30 u[77] + 35 u[78] + 9 u[79]
   + 72 u[80] + 40 u[81] + 93 u[82] + 8 u[83] + 84 u[84] + 68 u[85]
   + 6 u[86] + 27 u[87] + 5 u[88] + 14 u[89] + 39 u[90] + 3 u[91] + 3 u[92]
   + 18 u[93] + 99 u[94] + 80 u[95] + 48 u[96] + 95 u[97] + 23 u[98]
   + 99 u[99] + 32 u[100] + 99 u[101] + u[102] + 7 u[103] + 92 u[104]
   + 89 u[105] + 2 u[106] + 93 u[107] + 21 u[108] + 20 u[109] + 57 u[110]
   + 14 u[111] + 24 u[112] + 4 u[113] + 96 u[114] + 93 u[115] + 70 u[116]
   + 32 u[117] + 48 u[118] + 87 u[119] + 42 u[120] + 59 u[121] + 26 u[122]
   + 53 u[123] + 68 u[124] + 17 u[125] + 14 u[126] + 94 u[127] + 49 u[128]
   + 90 u[129] + 28 u[130] + 76 u[131] + 33 u[132] + 11 u[133] + 7 u[134]
   + 57 u[135] + 40 u[136] + 21 u[137] + 48 u[138] + 63 u[139] <= 731
 mccormick1[0]: - u[0] + r[0] <= 0
 mccormick1[1]: - u[1] + r[1] <= 0
 mccormick1[2]: - u[2] + r[2] <= 0
 mccormick1[3]: - u[3] + r[3] <= 0
 mccormick1[4]: - u[4] + r[4] <= 0
 mccormick1[5]: - u[5] + r[5] <= 0
 mccormick1[6]: - u[6] + r[6] <= 0
 mccormick1[7]: - u[7] + r[7] <= 0
 mccormick1[8]: - u[8] + r[8] <= 0
 mccormick1[9]: - u[9] + r[9] <= 0
 mccormick1[10]: - u[10] + r[10] <= 0
 mccormick1[11]: - u[11] + r[11] <= 0
 mccormick1[12]: - u[12] + r[12] <= 0
 mccormick1[13]: - u[13] + r[13] <= 0
 mccormick1[14]: - u[14] + r[14] <= 0
 mccormick1[15]: - u[15] + r[15] <= 0
 mccormick1[16]: - u[16] + r[16] <= 0
 mccormick1[17]: - u[17] + r[17] <= 0
 mccormick1[18]: - u[18] + r[18] <= 0
 mccormick1[19]: - u[19] + r[19] <= 0
 mccormick1[20]: - u[20] + r[20] <= 0
 mccormick1[21]: - u[21] + r[21] <= 0
 mccormick1[22]: - u[22] + r[22] <= 0
 mccormick1[23]: - u[23] + r[23] <= 0
 mccormick1[24]: - u[24] + r[24] <= 0
 mccormick1[25]: - u[25] + r[25] <= 0
 mccormick1[26]: - u[26] + r[26] <= 0
 mccormick1[27]: - u[27] + r[27] <= 0
 mccormick1[28]: - u[28] + r[28] <= 0
 mccormick1[29]: - u[29] + r[29] <= 0
 mccormick1[30]: - u[30] + r[30] <= 0
 mccormick1[31]: - u[31] + r[31] <= 0
 mccormick1[32]: - u[32] + r[32] <= 0
 mccormick1[33]: - u[33] + r[33] <= 0
 mccormick1[34]: - u[34] + r[34] <= 0
 mccormick1[35]: - u[35] + r[35] <= 0
 mccormick1[36]: - u[36] + r[36] <= 0
 mccormick1[37]: - u[37] + r[37] <= 0
 mccormick1[38]: - u[38] + r[38] <= 0
 mccormick1[39]: - u[39] + r[39] <= 0
 mccormick1[40]: - u[40] + r[40] <= 0
 mccormick1[41]: - u[41] + r[41] <= 0
 mccormick1[42]: - u[42] + r[42] <= 0
 mccormick1[43]: - u[43] + r[43] <= 0
 mccormick1[44]: - u[44] + r[44] <= 0
 mccormick1[45]: - u[45] + r[45] <= 0
 mccormick1[46]: - u[46] + r[46] <= 0
 mccormick1[47]: - u[47] + r[47] <= 0
 mccormick1[48]: - u[48] + r[48] <= 0
 mccormick1[49]: - u[49] + r[49] <= 0
 mccormick1[50]: - u[50] + r[50] <= 0
 mccormick1[51]: - u[51] + r[51] <= 0
 mccormick1[52]: - u[52] + r[52] <= 0
 mccormick1[53]: - u[53] + r[53] <= 0
 mccormick1[54]: - u[54] + r[54] <= 0
 mccormick1[55]: - u[55] + r[55] <= 0
 mccormick1[56]: - u[56] + r[56] <= 0
 mccormick1[57]: - u[57] + r[57] <= 0
 mccormick1[58]: - u[58] + r[58] <= 0
 mccormick1[59]: - u[59] + r[59] <= 0
 mccormick1[60]: - u[60] + r[60] <= 0
 mccormick1[61]: - u[61] + r[61] <= 0
 mccormick1[62]: - u[62] + r[62] <= 0
 mccormick1[63]: - u[63] + r[63] <= 0
 mccormick1[64]: - u[64] + r[64] <= 0
 mccormick1[65]: - u[65] + r[65] <= 0
 mccormick1[66]: - u[66] + r[66] <= 0
 mccormick1[67]: - u[67] + r[67] <= 0
 mccormick1[68]: - u[68] + r[68] <= 0
 mccormick1[69]: - u[69] + r[69] <= 0
 mccormick1[70]: - u[70] + r[70] <= 0
 mccormick1[71]: - u[71] + r[71] <= 0
 mccormick1[72]: - u[72] + r[72] <= 0
 mccormick1[73]: - u[73] + r[73] <= 0
 mccormick1[74]: - u[74] + r[74] <= 0
 mccormick1[75]: - u[75] + r[75] <= 0
 mccormick1[76]: - u[76] + r[76] <= 0
 mccormick1[77]: - u[77] + r[77] <= 0
 mccormick1[78]: - u[78] + r[78] <= 0
 mccormick1[79]: - u[79] + r[79] <= 0
 mccormick1[80]: - u[80] + r[80] <= 0
 mccormick1[81]: - u[81] + r[81] <= 0
 mccormick1[82]: - u[82] + r[82] <= 0
 mccormick1[83]: - u[83] + r[83] <= 0
 mccormick1[84]: - u[84] + r[84] <= 0
 mccormick1[85]: - u[85] + r[85] <= 0
 mccormick1[86]: - u[86] + r[86] <= 0
 mccormick1[87]: - u[87] + r[87] <= 0
 mccormick1[88]: - u[88] + r[88] <= 0
 mccormick1[89]: - u[89] + r[89] <= 0
 mccormick1[90]: - u[90] + r[90] <= 0
 mccormick1[91]: - u[91] + r[91] <= 0
 mccormick1[92]: - u[92] + r[92] <= 0
 mccormick1[93]: - u[93] + r[93] <= 0
 mccormick1[94]: - u[94] + r[94] <= 0
 mccormick1[95]: - u[95] + r[95] <= 0
 mccormick1[96]: - u[96] + r[96] <= 0
 mccormick1[97]: - u[97] + r[97] <= 0
 mccormick1[98]: - u[98] + r[98] <= 0
 mccormick1[99]: - u[99] + r[99] <= 0
 mccormick1[100]: - u[100] + r[100] <= 0
 mccormick1[101]: - u[101] + r[101] <= 0
 mccormick1[102]: - u[102] + r[102] <= 0
 mccormick1[103]: - u[103] + r[103] <= 0
 mccormick1[104]: - u[104] + r[104] <= 0
 mccormick1[105]: - u[105] + r[105] <= 0
 mccormick1[106]: - u[106] + r[106] <= 0
 mccormick1[107]: - u[107] + r[107] <= 0
 mccormick1[108]: - u[108] + r[108] <= 0
 mccormick1[109]: - u[109] + r[109] <= 0
 mccormick1[110]: - u[110] + r[110] <= 0
 mccormick1[111]: - u[111] + r[111] <= 0
 mccormick1[112]: - u[112] + r[112] <= 0
 mccormick1[113]: - u[113] + r[113] <= 0
 mccormick1[114]: - u[114] + r[114] <= 0
 mccormick1[115]: - u[115] + r[115] <= 0
 mccormick1[116]: - u[116] + r[116] <= 0
 mccormick1[117]: - u[117] + r[117] <= 0
 mccormick1[118]: - u[118] + r[118] <= 0
 mccormick1[119]: - u[119] + r[119] <= 0
 mccormick1[120]: - u[120] + r[120] <= 0
 mccormick1[121]: - u[121] + r[121] <= 0
 mccormick1[122]: - u[122] + r[122] <= 0
 mccormick1[123]: - u[123] + r[123] <= 0
 mccormick1[124]: - u[124] + r[124] <= 0
 mccormick1[125]: - u[125] + r[125] <= 0
 mccormick1[126]: - u[126] + r[126] <= 0
 mccormick1[127]: - u[127] + r[127] <= 0
 mccormick1[128]: - u[128] + r[128] <= 0
 mccormick1[129]: - u[129] + r[129] <= 0
 mccormick1[130]: - u[130] + r[130] <= 0
 mccormick1[131]: - u[131] + r[131] <= 0
 mccormick1[132]: - u[132] + r[132] <= 0
 mccormick1[133]: - u[133] + r[133] <= 0
 mccormick1[134]: - u[134] + r[134] <= 0
 mccormick1[135]: - u[135] + r[135] <= 0
 mccormick1[136]: - u[136] + r[136] <= 0
 mccormick1[137]: - u[137] + r[137] <= 0
 mccormick1[138]: - u[138] + r[138] <= 0
 mccormick1[139]: - u[139] + r[139] <= 0
 mccormick2[0]: - x[0] + r[0] <= 0
 mccormick2[1]: - x[1] + r[1] <= 0
 mccormick2[2]: - x[2] + r[2] <= 0
 mccormick2[3]: - x[3] + r[3] <= 0
 mccormick2[4]: - x[4] + r[4] <= 0
 mccormick2[5]: - x[5] + r[5] <= 0
 mccormick2[6]: - x[6] + r[6] <= 0
 mccormick2[7]: - x[7] + r[7] <= 0
 mccormick2[8]: - x[8] + r[8] <= 0
 mccormick2[9]: - x[9] + r[9] <= 0
 mccormick2[10]: - x[10] + r[10] <= 0
 mccormick2[11]: - x[11] + r[11] <= 0
 mccormick2[12]: - x[12] + r[12] <= 0
 mccormick2[13]: - x[13] + r[13] <= 0
 mccormick2[14]: - x[14] + r[14] <= 0
 mccormick2[15]: - x[15] + r[15] <= 0
 mccormick2[16]: - x[16] + r[16] <= 0
 mccormick2[17]: - x[17] + r[17] <= 0
 mccormick2[18]: - x[18] + r[18] <= 0
 mccormick2[19]: - x[19] + r[19] <= 0
 mccormick2[20]: - x[20] + r[20] <= 0
 mccormick2[21]: - x[21] + r[21] <= 0
 mccormick2[22]: - x[22] + r[22] <= 0
 mccormick2[23]: - x[23] + r[23] <= 0
 mccormick2[24]: - x[24] + r[24] <= 0
 mccormick2[25]: - x[25] + r[25] <= 0
 mccormick2[26]: - x[26] + r[26] <= 0
 mccormick2[27]: - x[27] + r[27] <= 0
 mccormick2[28]: - x[28] + r[28] <= 0
 mccormick2[29]: - x[29] + r[29] <= 0
 mccormick2[30]: - x[30] + r[30] <= 0
 mccormick2[31]: - x[31] + r[31] <= 0
 mccormick2[32]: - x[32] + r[32] <= 0
 mccormick2[33]: - x[33] + r[33] <= 0
 mccormick2[34]: - x[34] + r[34] <= 0
 mccormick2[35]: - x[35] + r[35] <= 0
 mccormick2[36]: - x[36] + r[36] <= 0
 mccormick2[37]: - x[37] + r[37] <= 0
 mccormick2[38]: - x[38] + r[38] <= 0
 mccormick2[39]: - x[39] + r[39] <= 0
 mccormick2[40]: - x[40] + r[40] <= 0
 mccormick2[41]: - x[41] + r[41] <= 0
 mccormick2[42]: - x[42] + r[42] <= 0
 mccormick2[43]: - x[43] + r[43] <= 0
 mccormick2[44]: - x[44] + r[44] <= 0
 mccormick2[45]: - x[45] + r[45] <= 0
 mccormick2[46]: - x[46] + r[46] <= 0
 mccormick2[47]: - x[47] + r[47] <= 0
 mccormick2[48]: - x[48] + r[48] <= 0
 mccormick2[49]: - x[49] + r[49] <= 0
 mccormick2[50]: - x[50] + r[50] <= 0
 mccormick2[51]: - x[51] + r[51] <= 0
 mccormick2[52]: - x[52] + r[52] <= 0
 mccormick2[53]: - x[53] + r[53] <= 0
 mccormick2[54]: - x[54] + r[54] <= 0
 mccormick2[55]: - x[55] + r[55] <= 0
 mccormick2[56]: - x[56] + r[56] <= 0
 mccormick2[57]: - x[57] + r[57] <= 0
 mccormick2[58]: - x[58] + r[58] <= 0
 mccormick2[59]: - x[59] + r[59] <= 0
 mccormick2[60]: - x[60] + r[60] <= 0
 mccormick2[61]: - x[61] + r[61] <= 0
 mccormick2[62]: - x[62] + r[62] <= 0
 mccormick2[63]: - x[63] + r[63] <= 0
 mccormick2[64]: - x[64] + r[64] <= 0
 mccormick2[65]: - x[65] + r[65] <= 0
 mccormick2[66]: - x[66] + r[66] <= 0
 mccormick2[67]: - x[67] + r[67] <= 0
 mccormick2[68]: - x[68] + r[68] <= 0
 mccormick2[69]: - x[69] + r[69] <= 0
 mccormick2[70]: - x[70] + r[70] <= 0
 mccormick2[71]: - x[71] + r[71] <= 0
 mccormick2[72]: - x[72] + r[72] <= 0
 mccormick2[73]: - x[73] + r[73] <= 0
 mccormick2[74]: - x[74] + r[74] <= 0
 mccormick2[75]: - x[75] + r[75] <= 0
 mccormick2[76]: - x[76] + r[76] <= 0
 mccormick2[77]: - x[77] + r[77] <= 0
 mccormick2[78]: - x[78] + r[78] <= 0
 mccormick2[79]: - x[79] + r[79] <= 0
 mccormick2[80]: - x[80] + r[80] <= 0
 mccormick2[81]: - x[81] + r[81] <= 0
 mccormick2[82]: - x[82] + r[82] <= 0
 mccormick2[83]: - x[83] + r[83] <= 0
 mccormick2[84]: - x[84] + r[84] <= 0
 mccormick2[85]: - x[85] + r[85] <= 0
 mccormick2[86]: - x[86] + r[86] <= 0
 mccormick2[87]: - x[87] + r[87] <= 0
 mccormick2[88]: - x[88] + r[88] <= 0
 mccormick2[89]: - x[89] + r[89] <= 0
 mccormick2[90]: - x[90] + r[90] <= 0
 mccormick2[91]: - x[91] + r[91] <= 0
 mccormick2[92]: - x[92] + r[92] <= 0
 mccormick2[93]: - x[93] + r[93] <= 0
 mccormick2[94]: - x[94] + r[94] <= 0
 mccormick2[95]: - x[95] + r[95] <= 0
 mccormick2[96]: - x[96] + r[96] <= 0
 mccormick2[97]: - x[97] + r[97] <= 0
 mccormick2[98]: - x[98] + r[98] <= 0
 mccormick2[99]: - x[99] + r[99] <= 0
 mccormick2[100]: - x[100] + r[100] <= 0
 mccormick2[101]: - x[101] + r[101] <= 0
 mccormick2[102]: - x[102] + r[102] <= 0
 mccormick2[103]: - x[103] + r[103] <= 0
 mccormick2[104]: - x[104] + r[104] <= 0
 mccormick2[105]: - x[105] + r[105] <= 0
 mccormick2[106]: - x[106] + r[106] <= 0
 mccormick2[107]: - x[107] + r[107] <= 0
 mccormick2[108]: - x[108] + r[108] <= 0
 mccormick2[109]: - x[109] + r[109] <= 0
 mccormick2[110]: - x[110] + r[110] <= 0
 mccormick2[111]: - x[111] + r[111] <= 0
 mccormick2[112]: - x[112] + r[112] <= 0
 mccormick2[113]: - x[113] + r[113] <= 0
 mccormick2[114]: - x[114] + r[114] <= 0
 mccormick2[115]: - x[115] + r[115] <= 0
 mccormick2[116]: - x[116] + r[116] <= 0
 mccormick2[117]: - x[117] + r[117] <= 0
 mccormick2[118]: - x[118] + r[118] <= 0
 mccormick2[119]: - x[119] + r[119] <= 0
 mccormick2[120]: - x[120] + r[120] <= 0
 mccormick2[121]: - x[121] + r[121] <= 0
 mccormick2[122]: - x[122] + r[122] <= 0
 mccormick2[123]: - x[123] + r[123] <= 0
 mccormick2[124]: - x[124] + r[124] <= 0
 mccormick2[125]: - x[125] + r[125] <= 0
 mccormick2[126]: - x[126] + r[126] <= 0
 mccormick2[127]: - x[127] + r[127] <= 0
 mccormick2[128]: - x[128] + r[128] <= 0
 mccormick2[129]: - x[129] + r[129] <= 0
 mccormick2[130]: - x[130] + r[130] <= 0
 mccormick2[131]: - x[131] + r[131] <= 0
 mccormick2[132]: - x[132] + r[132] <= 0
 mccormick2[133]: - x[133] + r[133] <= 0
 mccormick2[134]: - x[134] + r[134] <= 0
 mccormick2[135]: - x[135] + r[135] <= 0
 mccormick2[136]: - x[136] + r[136] <= 0
 mccormick2[137]: - x[137] + r[137] <= 0
 mccormick2[138]: - x[138] + r[138] <= 0
 mccormick2[139]: - x[139] + r[139] <= 0
 mccormick3[0]: x[0] + u[0] - r[0] <= 1
 mccormick3[1]: x[1] + u[1] - r[1] <= 1
 mccormick3[2]: x[2] + u[2] - r[2] <= 1
 mccormick3[3]: x[3] + u[3] - r[3] <= 1
 mccormick3[4]: x[4] + u[4] - r[4] <= 1
 mccormick3[5]: x[5] + u[5] - r[5] <= 1
 mccormick3[6]: x[6] + u[6] - r[6] <= 1
 mccormick3[7]: x[7] + u[7] - r[7] <= 1
 mccormick3[8]: x[8] + u[8] - r[8] <= 1
 mccormick3[9]: x[9] + u[9] - r[9] <= 1
 mccormick3[10]: x[10] + u[10] - r[10] <= 1
 mccormick3[11]: x[11] + u[11] - r[11] <= 1
 mccormick3[12]: x[12] + u[12] - r[12] <= 1
 mccormick3[13]: x[13] + u[13] - r[13] <= 1
 mccormick3[14]: x[14] + u[14] - r[14] <= 1
 mccormick3[15]: x[15] + u[15] - r[15] <= 1
 mccormick3[16]: x[16] + u[16] - r[16] <= 1
 mccormick3[17]: x[17] + u[17] - r[17] <= 1
 mccormick3[18]: x[18] + u[18] - r[18] <= 1
 mccormick3[19]: x[19] + u[19] - r[19] <= 1
 mccormick3[20]: x[20] + u[20] - r[20] <= 1
 mccormick3[21]: x[21] + u[21] - r[21] <= 1
 mccormick3[22]: x[22] + u[22] - r[22] <= 1
 mccormick3[23]: x[23] + u[23] - r[23] <= 1
 mccormick3[24]: x[24] + u[24] - r[24] <= 1
 mccormick3[25]: x[25] + u[25] - r[25] <= 1
 mccormick3[26]: x[26] + u[26] - r[26] <= 1
 mccormick3[27]: x[27] + u[27] - r[27] <= 1
 mccormick3[28]: x[28] + u[28] - r[28] <= 1
 mccormick3[29]: x[29] + u[29] - r[29] <= 1
 mccormick3[30]: x[30] + u[30] - r[30] <= 1
 mccormick3[31]: x[31] + u[31] - r[31] <= 1
 mccormick3[32]: x[32] + u[32] - r[32] <= 1
 mccormick3[33]: x[33] + u[33] - r[33] <= 1
 mccormick3[34]: x[34] + u[34] - r[34] <= 1
 mccormick3[35]: x[35] + u[35] - r[35] <= 1
 mccormick3[36]: x[36] + u[36] - r[36] <= 1
 mccormick3[37]: x[37] + u[37] - r[37] <= 1
 mccormick3[38]: x[38] + u[38] - r[38] <= 1
 mccormick3[39]: x[39] + u[39] - r[39] <= 1
 mccormick3[40]: x[40] + u[40] - r[40] <= 1
 mccormick3[41]: x[41] + u[41] - r[41] <= 1
 mccormick3[42]: x[42] + u[42] - r[42] <= 1
 mccormick3[43]: x[43] + u[43] - r[43] <= 1
 mccormick3[44]: x[44] + u[44] - r[44] <= 1
 mccormick3[45]: x[45] + u[45] - r[45] <= 1
 mccormick3[46]: x[46] + u[46] - r[46] <= 1
 mccormick3[47]: x[47] + u[47] - r[47] <= 1
 mccormick3[48]: x[48] + u[48] - r[48] <= 1
 mccormick3[49]: x[49] + u[49] - r[49] <= 1
 mccormick3[50]: x[50] + u[50] - r[50] <= 1
 mccormick3[51]: x[51] + u[51] - r[51] <= 1
 mccormick3[52]: x[52] + u[52] - r[52] <= 1
 mccormick3[53]: x[53] + u[53] - r[53] <= 1
 mccormick3[54]: x[54] + u[54] - r[54] <= 1
 mccormick3[55]: x[55] + u[55] - r[55] <= 1
 mccormick3[56]: x[56] + u[56] - r[56] <= 1
 mccormick3[57]: x[57] + u[57] - r[57] <= 1
 mccormick3[58]: x[58] + u[58] - r[58] <= 1
 mccormick3[59]: x[59] + u[59] - r[59] <= 1
 mccormick3[60]: x[60] + u[60] - r[60] <= 1
 mccormick3[61]: x[61] + u[61] - r[61] <= 1
 mccormick3[62]: x[62] + u[62] - r[62] <= 1
 mccormick3[63]: x[63] + u[63] - r[63] <= 1
 mccormick3[64]: x[64] + u[64] - r[64] <= 1
 mccormick3[65]: x[65] + u[65] - r[65] <= 1
 mccormick3[66]: x[66] + u[66] - r[66] <= 1
 mccormick3[67]: x[67] + u[67] - r[67] <= 1
 mccormick3[68]: x[68] + u[68] - r[68] <= 1
 mccormick3[69]: x[69] + u[69] - r[69] <= 1
 mccormick3[70]: x[70] + u[70] - r[70] <= 1
 mccormick3[71]: x[71] + u[71] - r[71] <= 1
 mccormick3[72]: x[72] + u[72] - r[72] <= 1
 mccormick3[73]: x[73] + u[73] - r[73] <= 1
 mccormick3[74]: x[74] + u[74] - r[74] <= 1
 mccormick3[75]: x[75] + u[75] - r[75] <= 1
 mccormick3[76]: x[76] + u[76] - r[76] <= 1
 mccormick3[77]: x[77] + u[77] - r[77] <= 1
 mccormick3[78]: x[78] + u[78] - r[78] <= 1
 mccormick3[79]: x[79] + u[79] - r[79] <= 1
 mccormick3[80]: x[80] + u[80] - r[80] <= 1
 mccormick3[81]: x[81] + u[81] - r[81] <= 1
 mccormick3[82]: x[82] + u[82] - r[82] <= 1
 mccormick3[83]: x[83] + u[83] - r[83] <= 1
 mccormick3[84]: x[84] + u[84] - r[84] <= 1
 mccormick3[85]: x[85] + u[85] - r[85] <= 1
 mccormick3[86]: x[86] + u[86] - r[86] <= 1
 mccormick3[87]: x[87] + u[87] - r[87] <= 1
 mccormick3[88]: x[88] + u[88] - r[88] <= 1
 mccormick3[89]: x[89] + u[89] - r[89] <= 1
 mccormick3[90]: x[90] + u[90] - r[90] <= 1
 mccormick3[91]: x[91] + u[91] - r[91] <= 1
 mccormick3[92]: x[92] + u[92] - r[92] <= 1
 mccormick3[93]: x[93] + u[93] - r[93] <= 1
 mccormick3[94]: x[94] + u[94] - r[94] <= 1
 mccormick3[95]: x[95] + u[95] - r[95] <= 1
 mccormick3[96]: x[96] + u[96] - r[96] <= 1
 mccormick3[97]: x[97] + u[97] - r[97] <= 1
 mccormick3[98]: x[98] + u[98] - r[98] <= 1
 mccormick3[99]: x[99] + u[99] - r[99] <= 1
 mccormick3[100]: x[100] + u[100] - r[100] <= 1
 mccormick3[101]: x[101] + u[101] - r[101] <= 1
 mccormick3[102]: x[102] + u[102] - r[102] <= 1
 mccormick3[103]: x[103] + u[103] - r[103] <= 1
 mccormick3[104]: x[104] + u[104] - r[104] <= 1
 mccormick3[105]: x[105] + u[105] - r[105] <= 1
 mccormick3[106]: x[106] + u[106] - r[106] <= 1
 mccormick3[107]: x[107] + u[107] - r[107] <= 1
 mccormick3[108]: x[108] + u[108] - r[108] <= 1
 mccormick3[109]: x[109] + u[109] - r[109] <= 1
 mccormick3[110]: x[110] + u[110] - r[110] <= 1
 mccormick3[111]: x[111] + u[111] - r[111] <= 1
 mccormick3[112]: x[112] + u[112] - r[112] <= 1
 mccormick3[113]: x[113] + u[113] - r[113] <= 1
 mccormick3[114]: x[114] + u[114] - r[114] <= 1
 mccormick3[115]: x[115] + u[115] - r[115] <= 1
 mccormick3[116]: x[116] + u[116] - r[116] <= 1
 mccormick3[117]: x[117] + u[117] - r[117] <= 1
 mccormick3[118]: x[118] + u[118] - r[118] <= 1
 mccormick3[119]: x[119] + u[119] - r[119] <= 1
 mccormick3[120]: x[120] + u[120] - r[120] <= 1
 mccormick3[121]: x[121] + u[121] - r[121] <= 1
 mccormick3[122]: x[122] + u[122] - r[122] <= 1
 mccormick3[123]: x[123] + u[123] - r[123] <= 1
 mccormick3[124]: x[124] + u[124] - r[124] <= 1
 mccormick3[125]: x[125] + u[125] - r[125] <= 1
 mccormick3[126]: x[126] + u[126] - r[126] <= 1
 mccormick3[127]: x[127] + u[127] - r[127] <= 1
 mccormick3[128]: x[128] + u[128] - r[128] <= 1
 mccormick3[129]: x[129] + u[129] - r[129] <= 1
 mccormick3[130]: x[130] + u[130] - r[130] <= 1
 mccormick3[131]: x[131] + u[131] - r[131] <= 1
 mccormick3[132]: x[132] + u[132] - r[132] <= 1
 mccormick3[133]: x[133] + u[133] - r[133] <= 1
 mccormick3[134]: x[134] + u[134] - r[134] <= 1
 mccormick3[135]: x[135] + u[135] - r[135] <= 1
 mccormick3[136]: x[136] + u[136] - r[136] <= 1
 mccormick3[137]: x[137] + u[137] - r[137] <= 1
 mccormick3[138]: x[138] + u[138] - r[138] <= 1
 mccormick3[139]: x[139] + u[139] - r[139] <= 1
Bounds
Binaries
 x[0] x[1] x[2] x[3] x[4] x[5] x[6] x[7] x[8] x[9] x[10] x[11] x[12] x[13]
 x[14] x[15] x[16] x[17] x[18] x[19] x[20] x[21] x[22] x[23] x[24] x[25]
 x[26] x[27] x[28] x[29] x[30] x[31] x[32] x[33] x[34] x[35] x[36] x[37]
 x[38] x[39] x[40] x[41] x[42] x[43] x[44] x[45] x[46] x[47] x[48] x[49]
 x[50] x[51] x[52] x[53] x[54] x[55] x[56] x[57] x[58] x[59] x[60] x[61]
 x[62] x[63] x[64] x[65] x[66] x[67] x[68] x[69] x[70] x[71] x[72] x[73]
 x[74] x[75] x[76] x[77] x[78] x[79] x[80] x[81] x[82] x[83] x[84] x[85]
 x[86] x[87] x[88] x[89] x[90] x[91] x[92] x[93] x[94] x[95] x[96] x[97]
 x[98] x[99] x[100] x[101] x[102] x[103] x[104] x[105] x[106] x[107] x[108]
 x[109] x[110] x[111] x[112] x[113] x[114] x[115] x[116] x[117] x[118]
 x[119] x[120] x[121] x[122] x[123] x[124] x[125] x[126] x[127] x[128]
 x[129] x[130] x[131] x[132] x[133] x[134] x[135] x[136] x[137] x[138]
 x[139] u[0] u[1] u[2] u[3] u[4] u[5] u[6] u[7] u[8] u[9] u[10] u[11] u[12]
 u[13] u[14] u[15] u[16] u[17] u[18] u[19] u[20] u[21] u[22] u[23] u[24]
 u[25] u[26] u[27] u[28] u[29] u[30] u[31] u[32] u[33] u[34] u[35] u[36]
 u[37] u[38] u[39] u[40] u[41] u[42] u[43] u[44] u[45] u[46] u[47] u[48]
 u[49] u[50] u[51] u[52] u[53] u[54] u[55] u[56] u[57] u[58] u[59] u[60]
 u[61] u[62] u[63] u[64] u[65] u[66] u[67] u[68] u[69] u[70] u[71] u[72]
 u[73] u[74] u[75] u[76] u[77] u[78] u[79] u[80] u[81] u[82] u[83] u[84]
 u[85] u[86] u[87] u[88] u[89] u[90] u[91] u[92] u[93] u[94] u[95] u[96]
 u[97] u[98] u[99] u[100] u[101] u[102] u[103] u[104] u[105] u[106] u[107]
 u[108] u[109] u[110] u[111] u[112] u[113] u[114] u[115] u[116] u[117]
 u[118] u[119] u[120] u[121] u[122] u[123] u[124] u[125] u[126] u[127]
 u[128] u[129] u[130] u[131] u[132] u[133] u[134] u[135] u[136] u[137]
 u[138] u[139] r[0] r[1] r[2] r[3] r[4] r[5] r[6] r[7] r[8] r[9] r[10]
 r[11] r[12] r[13] r[14] r[15] r[16] r[17] r[18] r[19] r[20] r[21] r[22]
 r[23] r[24] r[25] r[26] r[27] r[28] r[29] r[30] r[31] r[32] r[33] r[34]
 r[35] r[36] r[37] r[38] r[39] r[40] r[41] r[42] r[43] r[44] r[45] r[46]
 r[47] r[48] r[49] r[50] r[51] r[52] r[53] r[54] r[55] r[56] r[57] r[58]
 r[59] r[60] r[61] r[62] r[63] r[64] r[65] r[66] r[67] r[68] r[69] r[70]
 r[71] r[72] r[73] r[74] r[75] r[76] r[77] r[78] r[79] r[80] r[81] r[82]
 r[83] r[84] r[85] r[86] r[87] r[88] r[89] r[90] r[91] r[92] r[93] r[94]
 r[95] r[96] r[97] r[98] r[99] r[100] r[101] r[102] r[103] r[104] r[105]
 r[106] r[107] r[108] r[109] r[110] r[111] r[112] r[113] r[114] r[115]
 r[116] r[117] r[118] r[119] r[120] r[121] r[122] r[123] r[124] r[125]
 r[126] r[127] r[128] r[129] r[130] r[131] r[132] r[133] r[134] r[135]
 r[136] r[137] r[138] r[139]
End
